rcpsp/heur_output_bi_constraints/Log=10/heurj90.txt
encoding rcpsp/j90.sm/j9035_5.sm nv: 513252 nc: 1236340 enctime: 19.72
encoding rcpsp/j90.sm/j9035_5.sm nv: 94446 nc: 224006 enctime: 1.14
c File: j9035_5.smnaivebi10.wcnf
c optimal
c final solution cost: 94
c CPU time: 4.098991
s OPTIMUM FOUND

c File: j9035_5.smbi10.wcnf
c optimal
c final solution cost: 94
c CPU time: 0.266840
s OPTIMUM FOUND


rcpsp/heur_output_bi_constraints/Log=10/heurj90.txt
encoding rcpsp/j90.sm/j9035_6.sm nv: 501228 nc: 1154480 enctime: 16.42
encoding rcpsp/j90.sm/j9035_6.sm nv: 88452 nc: 200744 enctime: 0.99
c File: j9035_6.smnaivebi10.wcnf
c optimal
c final solution cost: 72
c CPU time: 3.477560
s OPTIMUM FOUND

c File: j9035_6.smbi10.wcnf
c optimal
c final solution cost: 72
c CPU time: 0.246172
s OPTIMUM FOUND


rcpsp/heur_output_bi_constraints/Log=10/heurj90.txt
encoding rcpsp/j90.sm/j9035_7.sm nv: 434250 nc: 1001562 enctime: 14.17
encoding rcpsp/j90.sm/j9035_7.sm nv: 92640 nc: 211080 enctime: 1.52
c File: j9035_7.smnaivebi10.wcnf
c optimal
c final solution cost: 78
c CPU time: 3.040121
s OPTIMUM FOUND

c File: j9035_7.smbi10.wcnf
c optimal
c final solution cost: 78
c CPU time: 0.291083
s OPTIMUM FOUND


rcpsp/heur_output_bi_constraints/Log=10/heurj90.txt
encoding rcpsp/j90.sm/j9035_8.sm nv: 493136 nc: 1135533 enctime: 15.80
encoding rcpsp/j90.sm/j9035_8.sm nv: 90132 nc: 204656 enctime: 1.49
c File: j9035_8.smnaivebi10.wcnf
c optimal
c final solution cost: 85
c CPU time: 3.351368
s OPTIMUM FOUND

c File: j9035_8.smbi10.wcnf
c optimal
c final solution cost: 85
c CPU time: 0.226763
s OPTIMUM FOUND


rcpsp/heur_output_bi_constraints/Log=10/heurj90.txt
encoding rcpsp/j90.sm/j9035_9.sm nv: 476844 nc: 1095531 enctime: 15.56
encoding rcpsp/j90.sm/j9035_9.sm nv: 78468 nc: 177207 enctime: 1.33
c File: j9035_9.smnaivebi10.wcnf
c optimal
c final solution cost: 76
c CPU time: 3.487132
s OPTIMUM FOUND

c File: j9035_9.smbi10.wcnf
c optimal
c final solution cost: 76
c CPU time: 0.195651
s OPTIMUM FOUND


rcpsp/heur_output_bi_constraints/Log=10/heurj90.txt
encoding rcpsp/j90.sm/j903_5.sm nv: 687659 nc: 1517678 enctime: 18.08
encoding rcpsp/j90.sm/j903_5.sm nv: 104027 nc: 226430 enctime: 1.09
c File: j903_5.smnaivebi10.wcnf
c optimal
c final solution cost: 75
c CPU time: 3.422691
s OPTIMUM FOUND

c File: j903_5.smbi10.wcnf
c optimal
c final solution cost: 75
c CPU time: 0.257657
s OPTIMUM FOUND


rcpsp/heur_output_bi_constraints/Log=10/heurj90.txt
encoding rcpsp/j90.sm/j9036_10.sm nv: 594868 nc: 1359973 enctime: 18.78
encoding rcpsp/j90.sm/j9036_10.sm nv: 115929 nc: 261808 enctime: 1.87
c File: j9036_10.smnaivebi10.wcnf
c optimal
c final solution cost: 93
c CPU time: 3.933344
s OPTIMUM FOUND

c File: j9036_10.smbi10.wcnf
c optimal
c final solution cost: 93
c CPU time: 0.305210
s OPTIMUM FOUND


rcpsp/heur_output_bi_constraints/Log=10/heurj90.txt
encoding rcpsp/j90.sm/j9036_1.sm nv: 493188 nc: 1105466 enctime: 14.22
encoding rcpsp/j90.sm/j9036_1.sm nv: 126112 nc: 280360 enctime: 2.39
c File: j9036_1.smnaivebi10.wcnf
c optimal
c final solution cost: 81
c CPU time: 3.020971
s OPTIMUM FOUND

c File: j9036_1.smbi10.wcnf
c optimal
c final solution cost: 81
c CPU time: 0.350294
s OPTIMUM FOUND


rcpsp/heur_output_bi_constraints/Log=10/heurj90.txt
encoding rcpsp/j90.sm/j9036_2.sm nv: 529830 nc: 1251616 enctime: 18.60
encoding rcpsp/j90.sm/j9036_2.sm nv: 116725 nc: 272374 enctime: 1.99
c File: j9036_2.smnaivebi10.wcnf
c optimal
c final solution cost: 114
c CPU time: 3.862463
s OPTIMUM FOUND

c File: j9036_2.smbi10.wcnf
c optimal
c final solution cost: 114
c CPU time: 0.299797
s OPTIMUM FOUND


rcpsp/heur_output_bi_constraints/Log=10/heurj90.txt
encoding rcpsp/j90.sm/j9036_3.sm nv: 656370 nc: 1479522 enctime: 19.64
encoding rcpsp/j90.sm/j9036_3.sm nv: 106821 nc: 237379 enctime: 1.70
c File: j9036_3.smnaivebi10.wcnf
c optimal
c final solution cost: 79
c CPU time: 3.975147
s OPTIMUM FOUND

c File: j9036_3.smbi10.wcnf
c optimal
c final solution cost: 79
c CPU time: 0.244793
s OPTIMUM FOUND


rcpsp/heur_output_bi_constraints/Log=10/heurj90.txt
encoding rcpsp/j90.sm/j9036_4.sm nv: 548948 nc: 1230395 enctime: 16.05
encoding rcpsp/j90.sm/j9036_4.sm nv: 102486 nc: 226803 enctime: 1.58
c File: j9036_4.smnaivebi10.wcnf
c optimal
c final solution cost: 79
c CPU time: 3.334544
s OPTIMUM FOUND

c File: j9036_4.smbi10.wcnf
c optimal
c final solution cost: 79
c CPU time: 0.240865
s OPTIMUM FOUND


rcpsp/heur_output_bi_constraints/Log=10/heurj90.txt
encoding rcpsp/j90.sm/j9036_5.sm nv: 590336 nc: 1355353 enctime: 19.21
encoding rcpsp/j90.sm/j9036_5.sm nv: 114147 nc: 258838 enctime: 1.32
c File: j9036_5.smnaivebi10.wcnf
c optimal
c final solution cost: 98
c CPU time: 3.867089
s OPTIMUM FOUND

c File: j9036_5.smbi10.wcnf
c optimal
c final solution cost: 98
c CPU time: 0.263575
s OPTIMUM FOUND


rcpsp/heur_output_bi_constraints/Log=10/heurj90.txt
encoding rcpsp/j90.sm/j9036_6.sm nv: 623570 nc: 1390588 enctime: 18.33
encoding rcpsp/j90.sm/j9036_6.sm nv: 127000 nc: 280148 enctime: 1.43
c File: j9036_6.smnaivebi10.wcnf
c optimal
c final solution cost: 96
c CPU time: 3.845029
s OPTIMUM FOUND

c File: j9036_6.smbi10.wcnf
c optimal
c final solution cost: 96
c CPU time: 0.333676
s OPTIMUM FOUND


rcpsp/heur_output_bi_constraints/Log=10/heurj90.txt
encoding rcpsp/j90.sm/j9036_7.sm nv: 571206 nc: 1307233 enctime: 17.85
encoding rcpsp/j90.sm/j9036_7.sm nv: 105524 nc: 238235 enctime: 1.72
c File: j9036_7.smnaivebi10.wcnf
c optimal
c final solution cost: 87
c CPU time: 3.716475
s OPTIMUM FOUND

c File: j9036_7.smbi10.wcnf
c optimal
c final solution cost: 87
c CPU time: 0.259715
s OPTIMUM FOUND


rcpsp/heur_output_bi_constraints/Log=10/heurj90.txt
encoding rcpsp/j90.sm/j9036_8.sm nv: 606528 nc: 1350845 enctime: 17.32
encoding rcpsp/j90.sm/j9036_8.sm nv: 112752 nc: 248231 enctime: 1.73
c File: j9036_8.smnaivebi10.wcnf
c optimal
c final solution cost: 82
c CPU time: 3.648569
s OPTIMUM FOUND

c File: j9036_8.smbi10.wcnf
c optimal
c final solution cost: 82
c CPU time: 0.290389
s OPTIMUM FOUND


rcpsp/heur_output_bi_constraints/Log=10/heurj90.txt
encoding rcpsp/j90.sm/j9036_9.sm nv: 633920 nc: 1481053 enctime: 22.20
encoding rcpsp/j90.sm/j9036_9.sm nv: 116596 nc: 268632 enctime: 1.37
c File: j9036_9.smnaivebi10.wcnf
c optimal
c final solution cost: 102
c CPU time: 4.532459
s OPTIMUM FOUND

c File: j9036_9.smbi10.wcnf
c optimal
c final solution cost: 102
c CPU time: 0.280233
s OPTIMUM FOUND


rcpsp/heur_output_bi_constraints/Log=10/heurj90.txt
encoding rcpsp/j90.sm/j903_6.sm nv: 502320 nc: 1117066 enctime: 13.40
encoding rcpsp/j90.sm/j903_6.sm nv: 87360 nc: 191766 enctime: 0.92
c File: j903_6.smnaivebi10.wcnf
c optimal
c final solution cost: 68
c CPU time: 2.705058
s OPTIMUM FOUND

c File: j903_6.smbi10.wcnf
c optimal
c final solution cost: 68
c CPU time: 0.212157
s OPTIMUM FOUND


rcpsp/heur_output_bi_constraints/Log=10/heurj90.txt
encoding rcpsp/j90.sm/j9037_10.sm nv: 902272 nc: 2009859 enctime: 24.32
encoding rcpsp/j90.sm/j9037_10.sm nv: 261184 nc: 578751 enctime: 3.86
c File: j9037_10.smnaivebi10.wcnf
c timeout
c final solution cost: 125
c CPU time: 64.110483
s UNKNOWN

c File: j9037_10.smbi10.wcnf
c timeout
c final solution cost: 131
c CPU time: 60.580713
s UNKNOWN


rcpsp/heur_output_bi_constraints/Log=10/heurj90.txt
encoding rcpsp/j90.sm/j9037_1.sm nv: 980720 nc: 2152732 enctime: 24.80
encoding rcpsp/j90.sm/j9037_1.sm nv: 301760 nc: 659452 enctime: 5.05
c File: j9037_1.smnaivebi10.wcnf
c timeout
c final solution cost: 115
c CPU time: 64.102102
s UNKNOWN

c File: j9037_1.smbi10.wcnf
c timeout
c final solution cost: 112
c CPU time: 60.669851
s UNKNOWN


rcpsp/heur_output_bi_constraints/Log=10/heurj90.txt
encoding rcpsp/j90.sm/j9037_2.sm nv: 890500 nc: 1954976 enctime: 22.94
encoding rcpsp/j90.sm/j9037_2.sm nv: 247559 nc: 540578 enctime: 3.54
c File: j9037_2.smnaivebi10.wcnf
c timeout
c final solution cost: 118
c CPU time: 63.705067
s UNKNOWN

c File: j9037_2.smbi10.wcnf
c timeout
c final solution cost: 119
c CPU time: 60.522858
s UNKNOWN


rcpsp/heur_output_bi_constraints/Log=10/heurj90.txt
encoding rcpsp/j90.sm/j9037_3.sm nv: 779475 nc: 1717701 enctime: 20.10
encoding rcpsp/j90.sm/j9037_3.sm nv: 272406 nc: 597885 enctime: 4.03
c File: j9037_3.smnaivebi10.wcnf
c timeout
c final solution cost: 130
c CPU time: 63.368480
s UNKNOWN

c File: j9037_3.smbi10.wcnf
c optimal
c final solution cost: 129
c CPU time: 54.039849
s OPTIMUM FOUND


rcpsp/heur_output_bi_constraints/Log=10/heurj90.txt
encoding rcpsp/j90.sm/j9037_4.sm nv: 845894 nc: 1882902 enctime: 23.26
encoding rcpsp/j90.sm/j9037_4.sm nv: 269445 nc: 596923 enctime: 4.80
c File: j9037_4.smnaivebi10.wcnf
c timeout
c final solution cost: 138
c CPU time: 63.985297
s UNKNOWN

c File: j9037_4.smbi10.wcnf
c timeout
c final solution cost: 127
c CPU time: 60.643465
s UNKNOWN


rcpsp/heur_output_bi_constraints/Log=10/heurj90.txt
encoding rcpsp/j90.sm/j9037_5.sm nv: 771210 nc: 1717245 enctime: 20.96
encoding rcpsp/j90.sm/j9037_5.sm nv: 280440 nc: 621990 enctime: 4.93
c File: j9037_5.smnaivebi10.wcnf
c timeout
c final solution cost: 132
c CPU time: 63.609263
s UNKNOWN

c File: j9037_5.smbi10.wcnf
c timeout
c final solution cost: 126
c CPU time: 60.707709
s UNKNOWN


rcpsp/heur_output_bi_constraints/Log=10/heurj90.txt
encoding rcpsp/j90.sm/j9037_6.sm nv: 952590 nc: 2137121 enctime: 27.32
encoding rcpsp/j90.sm/j9037_6.sm nv: 289845 nc: 647020 enctime: 4.40
c File: j9037_6.smnaivebi10.wcnf
c timeout
c final solution cost: 138
c CPU time: 64.818038
s UNKNOWN

c File: j9037_6.smbi10.wcnf
c timeout
c final solution cost: 133
c CPU time: 60.693732
s UNKNOWN


rcpsp/heur_output_bi_constraints/Log=10/heurj90.txt
encoding rcpsp/j90.sm/j9037_7.sm nv: 793638 nc: 1752661 enctime: 21.15
encoding rcpsp/j90.sm/j9037_7.sm nv: 243317 nc: 534743 enctime: 4.26
c File: j9037_7.smnaivebi10.wcnf
c timeout
c final solution cost: 126
c CPU time: 63.584215
s UNKNOWN

c File: j9037_7.smbi10.wcnf
c timeout
c final solution cost: 124
c CPU time: 60.559950
s UNKNOWN


rcpsp/heur_output_bi_constraints/Log=10/heurj90.txt
encoding rcpsp/j90.sm/j9037_8.sm nv: 893944 nc: 1984910 enctime: 25.04
encoding rcpsp/j90.sm/j9037_8.sm nv: 262724 nc: 580390 enctime: 3.93
c File: j9037_8.smnaivebi10.wcnf
c timeout
c final solution cost: 131
c CPU time: 64.150247
s UNKNOWN

c File: j9037_8.smbi10.wcnf
c timeout
c final solution cost: 124
c CPU time: 60.600467
s UNKNOWN


rcpsp/heur_output_bi_constraints/Log=10/heurj90.txt
encoding rcpsp/j90.sm/j9037_9.sm nv: 754929 nc: 1671344 enctime: 20.65
encoding rcpsp/j90.sm/j9037_9.sm nv: 265710 nc: 585860 enctime: 4.05
c File: j9037_9.smnaivebi10.wcnf
c timeout
c final solution cost: 132
c CPU time: 63.703431
s UNKNOWN

c File: j9037_9.smbi10.wcnf
c timeout
c final solution cost: 131
c CPU time: 60.657871
s UNKNOWN


rcpsp/heur_output_bi_constraints/Log=10/heurj90.txt
encoding rcpsp/j90.sm/j903_7.sm nv: 428230 nc: 967683 enctime: 12.62
encoding rcpsp/j90.sm/j903_7.sm nv: 75735 nc: 168443 enctime: 0.81
c File: j903_7.smnaivebi10.wcnf
c optimal
c final solution cost: 69
c CPU time: 2.765607
s OPTIMUM FOUND

c File: j903_7.smbi10.wcnf
c optimal
c final solution cost: 69
c CPU time: 0.221928
s OPTIMUM FOUND


rcpsp/heur_output_bi_constraints/Log=10/heurj90.txt
encoding rcpsp/j90.sm/j9038_10.sm nv: 1237021 nc: 2633884 enctime: 27.99
encoding rcpsp/j90.sm/j9038_10.sm nv: 252858 nc: 535342 enctime: 3.46
c File: j9038_10.smnaivebi10.wcnf
c optimal
c final solution cost: 98
c CPU time: 6.165006
s OPTIMUM FOUND

c File: j9038_10.smbi10.wcnf
c optimal
c final solution cost: 98
c CPU time: 0.827112
s OPTIMUM FOUND


rcpsp/heur_output_bi_constraints/Log=10/heurj90.txt
encoding rcpsp/j90.sm/j9038_1.sm nv: 1357056 nc: 2867375 enctime: 29.64
encoding rcpsp/j90.sm/j9038_1.sm nv: 254448 nc: 534408 enctime: 3.51
c File: j9038_1.smnaivebi10.wcnf
c optimal
c final solution cost: 84
c CPU time: 13.144124
s OPTIMUM FOUND

c File: j9038_1.smbi10.wcnf
c optimal
c final solution cost: 84
c CPU time: 1.451999
s OPTIMUM FOUND


rcpsp/heur_output_bi_constraints/Log=10/heurj90.txt
encoding rcpsp/j90.sm/j9038_2.sm nv: 1358970 nc: 2849883 enctime: 28.50
encoding rcpsp/j90.sm/j9038_2.sm nv: 244440 nc: 509753 enctime: 3.29
c File: j9038_2.smnaivebi10.wcnf
c optimal
c final solution cost: 76
c CPU time: 5.976782
s OPTIMUM FOUND

c File: j9038_2.smbi10.wcnf
c optimal
c final solution cost: 76
c CPU time: 0.578677
s OPTIMUM FOUND


rcpsp/heur_output_bi_constraints/Log=10/heurj90.txt
encoding rcpsp/j90.sm/j9038_3.sm nv: 1394540 nc: 2939235 enctime: 30.25
encoding rcpsp/j90.sm/j9038_3.sm nv: 281754 nc: 590889 enctime: 3.81
c File: j9038_3.smnaivebi10.wcnf
c optimal
c final solution cost: 87
c CPU time: 13.300668
s OPTIMUM FOUND

c File: j9038_3.smbi10.wcnf
c optimal
c final solution cost: 87
c CPU time: 2.100407
s OPTIMUM FOUND


rcpsp/heur_output_bi_constraints/Log=10/heurj90.txt
encoding rcpsp/j90.sm/j9038_4.sm nv: 1354197 nc: 2872142 enctime: 29.99
encoding rcpsp/j90.sm/j9038_4.sm nv: 275113 nc: 580250 enctime: 3.72
c File: j9038_4.smnaivebi10.wcnf
c optimal
c final solution cost: 84
c CPU time: 57.406563
s OPTIMUM FOUND

c File: j9038_4.smbi10.wcnf
c optimal
c final solution cost: 84
c CPU time: 2.103092
s OPTIMUM FOUND


rcpsp/heur_output_bi_constraints/Log=10/heurj90.txt
encoding rcpsp/j90.sm/j9038_5.sm nv: 1308918 nc: 2792833 enctime: 29.97
encoding rcpsp/j90.sm/j9038_5.sm nv: 257244 nc: 545620 enctime: 3.57
c File: j9038_5.smnaivebi10.wcnf
c optimal
c final solution cost: 86
c CPU time: 12.198687
s OPTIMUM FOUND

c File: j9038_5.smbi10.wcnf
c optimal
c final solution cost: 86
c CPU time: 3.189681
s OPTIMUM FOUND


rcpsp/heur_output_bi_constraints/Log=10/heurj90.txt
encoding rcpsp/j90.sm/j9038_6.sm nv: 1362843 nc: 2872944 enctime: 29.28
encoding rcpsp/j90.sm/j9038_6.sm nv: 278700 nc: 584457 enctime: 3.73
c File: j9038_6.smnaivebi10.wcnf
c optimal
c final solution cost: 88
c CPU time: 9.152373
s OPTIMUM FOUND

c File: j9038_6.smbi10.wcnf
c optimal
c final solution cost: 88
c CPU time: 2.136597
s OPTIMUM FOUND


rcpsp/heur_output_bi_constraints/Log=10/heurj90.txt
encoding rcpsp/j90.sm/j9038_7.sm nv: 1380954 nc: 2914379 enctime: 30.01
encoding rcpsp/j90.sm/j9038_7.sm nv: 263435 nc: 552799 enctime: 3.55
c File: j9038_7.smnaivebi10.wcnf
c optimal
c final solution cost: 74
c CPU time: 15.039814
s OPTIMUM FOUND

c File: j9038_7.smbi10.wcnf
c optimal
c final solution cost: 74
c CPU time: 2.373226
s OPTIMUM FOUND


rcpsp/heur_output_bi_constraints/Log=10/heurj90.txt
encoding rcpsp/j90.sm/j9038_8.sm nv: 1574720 nc: 3329752 enctime: 35.14
encoding rcpsp/j90.sm/j9038_8.sm nv: 298960 nc: 628675 enctime: 4.13
c File: j9038_8.smnaivebi10.wcnf
c optimal
c final solution cost: 91
c CPU time: 9.998028
s OPTIMUM FOUND

c File: j9038_8.smbi10.wcnf
c optimal
c final solution cost: 91
c CPU time: 1.385621
s OPTIMUM FOUND


rcpsp/heur_output_bi_constraints/Log=10/heurj90.txt
encoding rcpsp/j90.sm/j9038_9.sm nv: 1376331 nc: 2944249 enctime: 32.72
encoding rcpsp/j90.sm/j9038_9.sm nv: 251174 nc: 533700 enctime: 3.58
c File: j9038_9.smnaivebi10.wcnf
c optimal
c final solution cost: 89
c CPU time: 12.633937
s OPTIMUM FOUND

c File: j9038_9.smbi10.wcnf
c optimal
c final solution cost: 89
c CPU time: 2.182994
s OPTIMUM FOUND


rcpsp/heur_output_bi_constraints/Log=10/heurj90.txt
encoding rcpsp/j90.sm/j903_8.sm nv: 501486 nc: 1141796 enctime: 14.88
encoding rcpsp/j90.sm/j903_8.sm nv: 87609 nc: 196496 enctime: 1.41
c File: j903_8.smnaivebi10.wcnf
c optimal
c final solution cost: 81
c CPU time: 3.182841
s OPTIMUM FOUND

c File: j903_8.smbi10.wcnf
c optimal
c final solution cost: 81
c CPU time: 0.286755
s OPTIMUM FOUND


rcpsp/heur_output_bi_constraints/Log=10/heurj90.txt
encoding rcpsp/j90.sm/j9039_10.sm nv: 1652510 nc: 3463297 enctime: 35.64
encoding rcpsp/j90.sm/j9039_10.sm nv: 331145 nc: 690691 enctime: 4.52
c File: j9039_10.smnaivebi10.wcnf
c optimal
c final solution cost: 100
c CPU time: 5.942430
s OPTIMUM FOUND

c File: j9039_10.smbi10.wcnf
c optimal
c final solution cost: 100
c CPU time: 0.730223
s OPTIMUM FOUND


